\ Equation counts
\     Total        E        G        L        N        X        C        B
\	261	261	0	0
\
\ Variable counts
\                  x        b        i      s1s      s2s       sc       si
\     Total     cont   binary  integer     sos1     sos2    scont     sint
\	50	50

\ Nonzero counts
\     Total    const       NL      DLL
\
\
Minimize
 obj: [ - 11.5 x_1 * x_4 - 17.0 x_1 * x_5 - 22.5 x_1 * x_6 - 23.5 x_1 * x_9 + 23.5 x_1 * x_10 - 24.0 x_1 * x_12 + 4.0 x_1 * x_14 - 14.5 x_1 * x_15 - 12.5 x_1 * x_18 + 20.5 x_1 * x_19 + 0.5 x_1 * x_21 + 22.5 x_1 * x_28 - 21.0 x_1 * x_29 - 4.5 x_1 * x_30 + 10.0 x_1 * x_31 - 11.0 x_1 * x_32 + 2.0 x_1 * x_35 + 16.0 x_1 * x_41 - 19.5 x_1 * x_43 - 8.0 x_1 * x_44 - 15.0 x_1 * x_49 + 10.5 x_1 * x_50 - 2.5 x_2 * x_2 + 21.0 x_2 * x_5 + 3.5 x_2 * x_7 - 10.0 x_2 * x_8 - 23.0 x_2 * x_10 + 12.0 x_2 * x_15 - 10.0 x_2 * x_17 - 20.0 x_2 * x_19 - 8.0 x_2 * x_20 - 20.0 x_2 * x_25 + 15.5 x_2 * x_26 + 8.0 x_2 * x_27 + 16.5 x_2 * x_29 - 8.5 x_2 * x_34 - 18.0 x_2 * x_35 + 0.5 x_2 * x_36 + 4.5 x_2 * x_38 - 5.0 x_2 * x_39 - 2.0 x_2 * x_40 - 8.5 x_2 * x_46 + 3.0 x_2 * x_47 + 6.0 x_3 * x_7 - 18.0 x_3 * x_12 + 18.5 x_3 * x_14 - 24.0 x_3 * x_16 + 21.5 x_3 * x_18 - 3.0 x_3 * x_20 - 20.5 x_3 * x_22 - 21.0 x_3 * x_32 - 5.5 x_3 * x_34 + 22.5 x_3 * x_37 + 20.5 x_3 * x_38 - 5.0 x_3 * x_39 + 18.0 x_3 * x_43 + 21.5 x_3 * x_46 - 15.0 x_3 * x_47 + 1.0 x_3 * x_49 - 6.5 x_3 * x_50 - 11.5 x_4 * x_1 + 2.0 x_4 * x_4 + 8.0 x_4 * x_6 - 19.5 x_4 * x_11 - 5.5 x_4 * x_16 - 16.5 x_4 * x_17 + 23.0 x_4 * x_18 + 14.5 x_4 * x_19 + 24.0 x_4 * x_20 - 7.5 x_4 * x_21 - 9.5 x_4 * x_23 + 14.0 x_4 * x_24 + 13.0 x_4 * x_25 - 21.5 x_4 * x_26 + 5.5 x_4 * x_27 + 24.5 x_4 * x_28 + 13.5 x_4 * x_30 - 24.0 x_4 * x_31 - 14.5 x_4 * x_35 + 2.0 x_4 * x_36 - 1.5 x_4 * x_38 - 17.0 x_4 * x_39 + 18.0 x_4 * x_43 + 10.0 x_4 * x_44 + 10.5 x_4 * x_45 + 17.5 x_4 * x_47 - 15.0 x_4 * x_49 + 3.5 x_4 * x_50 - 17.0 x_5 * x_1 + 21.0 x_5 * x_2 + 14.5 x_5 * x_5 + 12.0 x_5 * x_6 + 1.5 x_5 * x_8 + 22.0 x_5 * x_10 - 19.5 x_5 * x_12 + 19.0 x_5 * x_15 - 5.0 x_5 * x_17 - 18.5 x_5 * x_23 - 16.0 x_5 * x_27 + 4.5 x_5 * x_28 - 8.5 x_5 * x_29 + 15.5 x_5 * x_32 + 17.5 x_5 * x_33 + 11.0 x_5 * x_36 - 3.0 x_5 * x_40 - 9.0 x_5 * x_41 - 17.5 x_5 * x_44 - 22.5 x_6 * x_1 + 8.0 x_6 * x_4 + 12.0 x_6 * x_5 - 23.0 x_6 * x_8 - 14.5 x_6 * x_13 + 24.5 x_6 * x_15 + 1.0 x_6 * x_16 - 1.0 x_6 * x_17 - 14.0 x_6 * x_19 + 2.0 x_6 * x_20 - 10.5 x_6 * x_21 - 3.0 x_6 * x_22 + 1.0 x_6 * x_26 - 9.0 x_6 * x_32 + 9.5 x_6 * x_33 - 2.5 x_6 * x_37 + 22.5 x_6 * x_38 - 24.5 x_6 * x_39 + 20.5 x_6 * x_40 - 8.5 x_6 * x_41 + 16.5 x_6 * x_42 + 1.5 x_6 * x_45 + 15.0 x_6 * x_50 + 3.5 x_7 * x_2 + 6.0 x_7 * x_3 - 21.5 x_7 * x_10 + 17.5 x_7 * x_11 + 1.5 x_7 * x_12 + 22.5 x_7 * x_13 - 19.5 x_7 * x_14 - 22.5 x_7 * x_15 + 4.0 x_7 * x_17 - 10.0 x_7 * x_21 - 21.5 x_7 * x_22 - 9.0 x_7 * x_23 - 12.5 x_7 * x_35 - 1.0 x_7 * x_38 + 11.5 x_7 * x_39 - 22.0 x_7 * x_40 + 22.0 x_7 * x_41 - 3.5 x_7 * x_46 - 10.0 x_7 * x_48 - 21.0 x_7 * x_50 - 10.0 x_8 * x_2 + 1.5 x_8 * x_5 - 23.0 x_8 * x_6 + 4.0 x_8 * x_8 - 21.5 x_8 * x_10 + 11.0 x_8 * x_12 - 22.0 x_8 * x_13 + 17.5 x_8 * x_14 - 14.5 x_8 * x_16 - 18.0 x_8 * x_18 - 13.5 x_8 * x_20 + 18.0 x_8 * x_21 + 17.0 x_8 * x_22 - 10.5 x_8 * x_26 + 17.5 x_8 * x_28 - 7.5 x_8 * x_30 - 11.0 x_8 * x_31 + 2.5 x_8 * x_33 + 4.0 x_8 * x_36 - 15.5 x_8 * x_37 - 6.5 x_8 * x_42 + 7.0 x_8 * x_46 - 16.5 x_8 * x_47 - 10.5 x_8 * x_49 - 23.5 x_9 * x_1 - 23.0 x_9 * x_10 + 8.5 x_9 * x_11 + 11.0 x_9 * x_16 - 14.0 x_9 * x_22 + 9.0 x_9 * x_25 - 17.0 x_9 * x_26 + 9.5 x_9 * x_27 + 10.0 x_9 * x_29 - 16.0 x_9 * x_33 - 14.5 x_9 * x_34 + 14.5 x_9 * x_37 + 22.0 x_9 * x_40 + 9.5 x_9 * x_42 + 17.5 x_9 * x_43 + 8.5 x_9 * x_48 - 7.0 x_9 * x_49 + 23.5 x_10 * x_1 - 23.0 x_10 * x_2 + 22.0 x_10 * x_5 - 21.5 x_10 * x_7 - 21.5 x_10 * x_8 - 23.0 x_10 * x_9 - 7.0 x_10 * x_17 - 1.5 x_10 * x_21 + 18.0 x_10 * x_22 - 17.0 x_10 * x_24 + 21.5 x_10 * x_25 + 21.0 x_10 * x_27 - 22.5 x_10 * x_28 - 6.0 x_10 * x_29 + 8.0 x_10 * x_35 - 3.5 x_10 * x_41 + 13.0 x_10 * x_44 + 21.0 x_10 * x_46 - 19.5 x_11 * x_4 + 17.5 x_11 * x_7 + 8.5 x_11 * x_9 - 24.5 x_11 * x_16 + 2.5 x_11 * x_17 + 6.5 x_11 * x_20 - 9.0 x_11 * x_22 + 22.5 x_11 * x_26 - 19.0 x_11 * x_27 + 17.5 x_11 * x_30 + 10.5 x_11 * x_32 - 5.5 x_11 * x_33 - 9.5 x_11 * x_34 + 22.0 x_11 * x_40 - 24.0 x_11 * x_41 - 4.5 x_11 * x_42 - 6.5 x_11 * x_43 + 14.0 x_11 * x_44 + 4.0 x_11 * x_46 + 19.5 x_11 * x_50 - 24.0 x_12 * x_1 - 18.0 x_12 * x_3 - 19.5 x_12 * x_5 + 1.5 x_12 * x_7 + 11.0 x_12 * x_8 + 19.0 x_12 * x_12 - 20.0 x_12 * x_18 - 11.5 x_12 * x_19 + 19.0 x_12 * x_22 + 23.0 x_12 * x_25 + 8.5 x_12 * x_27 + 16.5 x_12 * x_31 - 4.5 x_12 * x_32 + 2.5 x_12 * x_33 - 5.0 x_12 * x_36 - 5.0 x_12 * x_39 + 14.5 x_12 * x_42 + 23.5 x_12 * x_43 + 9.0 x_12 * x_44 - 1.0 x_12 * x_45 + 7.0 x_12 * x_47 + 16.0 x_12 * x_50 - 14.5 x_13 * x_6 + 22.5 x_13 * x_7 - 22.0 x_13 * x_8 + 16.5 x_13 * x_13 + 24.5 x_13 * x_15 + 1.5 x_13 * x_18 - 5.5 x_13 * x_19 - 22.0 x_13 * x_23 + 3.0 x_13 * x_25 - 1.0 x_13 * x_27 + 16.5 x_13 * x_32 + 12.0 x_13 * x_37 + 12.0 x_13 * x_40 - 24.0 x_13 * x_48 + 9.5 x_13 * x_50 + 4.0 x_14 * x_1 + 18.5 x_14 * x_3 - 19.5 x_14 * x_7 + 17.5 x_14 * x_8 + 17.5 x_14 * x_19 + 5.5 x_14 * x_21 + 16.5 x_14 * x_22 + 21.5 x_14 * x_25 + 13.0 x_14 * x_28 - 22.0 x_14 * x_31 - 12.0 x_14 * x_48 - 14.5 x_15 * x_1 + 12.0 x_15 * x_2 + 19.0 x_15 * x_5 + 24.5 x_15 * x_6 - 22.5 x_15 * x_7 + 24.5 x_15 * x_13 + 2.5 x_15 * x_17 + 11.0 x_15 * x_19 + 9.0 x_15 * x_20 - 9.5 x_15 * x_23 - 20.5 x_15 * x_24 + 11.5 x_15 * x_30 + 21.0 x_15 * x_35 - 23.5 x_15 * x_36 - 12.5 x_15 * x_37 + 14.5 x_15 * x_38 + 7.5 x_15 * x_40 + 19.0 x_15 * x_41 - 24.0 x_15 * x_48 - 24.0 x_16 * x_3 - 5.5 x_16 * x_4 + 1.0 x_16 * x_6 - 14.5 x_16 * x_8 + 11.0 x_16 * x_9 - 24.5 x_16 * x_11 + 9.0 x_16 * x_17 + 16.0 x_16 * x_18 + 20.0 x_16 * x_24 - 7.5 x_16 * x_32 + 4.0 x_16 * x_34 - 21.0 x_16 * x_36 + 20.0 x_16 * x_41 - 22.0 x_16 * x_44 + 20.0 x_16 * x_45 - 11.5 x_16 * x_48 - 10.0 x_17 * x_2 - 16.5 x_17 * x_4 - 5.0 x_17 * x_5 - 1.0 x_17 * x_6 + 4.0 x_17 * x_7 - 7.0 x_17 * x_10 + 2.5 x_17 * x_11 + 2.5 x_17 * x_15 + 9.0 x_17 * x_16 - 9.5 x_17 * x_19 + 13.5 x_17 * x_20 + 6.0 x_17 * x_24 + 18.5 x_17 * x_37 - 9.0 x_17 * x_40 - 11.0 x_17 * x_41 - 1.5 x_17 * x_43 + 20.5 x_17 * x_48 - 12.5 x_18 * x_1 + 21.5 x_18 * x_3 + 23.0 x_18 * x_4 - 18.0 x_18 * x_8 - 20.0 x_18 * x_12 + 1.5 x_18 * x_13 + 16.0 x_18 * x_16 - 8.0 x_18 * x_19 - 7.0 x_18 * x_23 - 17.5 x_18 * x_26 - 20.5 x_18 * x_27 + 11.0 x_18 * x_28 - 3.0 x_18 * x_31 - 5.0 x_18 * x_36 + 20.5 x_18 * x_37 - 8.5 x_18 * x_38 + 17.0 x_18 * x_39 + 7.0 x_18 * x_45 - 22.0 x_18 * x_47 - 19.5 x_18 * x_48 + 20.5 x_19 * x_1 - 20.0 x_19 * x_2 + 14.5 x_19 * x_4 - 14.0 x_19 * x_6 - 11.5 x_19 * x_12 - 5.5 x_19 * x_13 + 17.5 x_19 * x_14 + 11.0 x_19 * x_15 - 9.5 x_19 * x_17 - 8.0 x_19 * x_18 - 24.5 x_19 * x_21 - 9.0 x_19 * x_23 - 21.5 x_19 * x_26 + 5.0 x_19 * x_27 + 15.5 x_19 * x_28 - 18.0 x_19 * x_29 - 22.0 x_19 * x_30 - 16.0 x_19 * x_34 - 21.5 x_19 * x_35 + 3.5 x_19 * x_40 + 2.5 x_19 * x_41 + 1.5 x_19 * x_42 + 22.0 x_19 * x_44 + 6.5 x_19 * x_45 - 8.0 x_20 * x_2 - 3.0 x_20 * x_3 + 24.0 x_20 * x_4 + 2.0 x_20 * x_6 - 13.5 x_20 * x_8 + 6.5 x_20 * x_11 + 9.0 x_20 * x_15 + 13.5 x_20 * x_17 - 19.5 x_20 * x_20 + 10.5 x_20 * x_24 + 9.0 x_20 * x_25 - 20.0 x_20 * x_26 - 0.5 x_20 * x_27 - 0.5 x_20 * x_28 - 7.0 x_20 * x_29 - 19.0 x_20 * x_34 + 16.0 x_20 * x_37 - 12.5 x_20 * x_39 - 0.5 x_20 * x_43 - 10.0 x_20 * x_44 - 14.0 x_20 * x_45 - 6.5 x_20 * x_48 + 16.0 x_20 * x_49 + 0.5 x_21 * x_1 - 7.5 x_21 * x_4 - 10.5 x_21 * x_6 - 10.0 x_21 * x_7 + 18.0 x_21 * x_8 - 1.5 x_21 * x_10 + 5.5 x_21 * x_14 - 24.5 x_21 * x_19 + 24.5 x_21 * x_21 + 8.0 x_21 * x_31 + 21.0 x_21 * x_33 - 19.0 x_21 * x_37 + 15.5 x_21 * x_41 - 21.5 x_21 * x_42 - 4.5 x_21 * x_45 - 15.5 x_21 * x_47 - 18.0 x_21 * x_50 - 20.5 x_22 * x_3 - 3.0 x_22 * x_6 - 21.5 x_22 * x_7 + 17.0 x_22 * x_8 - 14.0 x_22 * x_9 + 18.0 x_22 * x_10 - 9.0 x_22 * x_11 + 19.0 x_22 * x_12 + 16.5 x_22 * x_14 + 19.5 x_22 * x_22 + 1.0 x_22 * x_23 + 13.0 x_22 * x_28 - 24.5 x_22 * x_30 - 16.0 x_22 * x_32 + 6.0 x_22 * x_35 + 13.0 x_22 * x_36 - 13.5 x_22 * x_39 - 18.5 x_22 * x_40 + 17.5 x_22 * x_45 - 13.0 x_22 * x_47 - 24.5 x_22 * x_49 + 8.5 x_22 * x_50 - 9.5 x_23 * x_4 - 18.5 x_23 * x_5 - 9.0 x_23 * x_7 - 22.0 x_23 * x_13 - 9.5 x_23 * x_15 - 7.0 x_23 * x_18 - 9.0 x_23 * x_19 + 1.0 x_23 * x_22 - 0.5 x_23 * x_26 - 7.5 x_23 * x_28 + 16.5 x_23 * x_33 - 17.0 x_23 * x_35 + 22.0 x_23 * x_37 - 20.0 x_23 * x_38 - 13.0 x_23 * x_39 + 7.0 x_23 * x_40 - 24.5 x_23 * x_42 - 17.0 x_23 * x_43 - 11.0 x_23 * x_46 + 14.0 x_24 * x_4 - 17.0 x_24 * x_10 - 20.5 x_24 * x_15 + 20.0 x_24 * x_16 + 6.0 x_24 * x_17 + 10.5 x_24 * x_20 + 15.0 x_24 * x_24 + 0.5 x_24 * x_25 + 1.0 x_24 * x_29 + 18.5 x_24 * x_32 + 5.0 x_24 * x_33 + 3.0 x_24 * x_41 - 17.0 x_24 * x_45 + 23.0 x_24 * x_49 - 20.0 x_25 * x_2 + 13.0 x_25 * x_4 + 9.0 x_25 * x_9 + 21.5 x_25 * x_10 + 23.0 x_25 * x_12 + 3.0 x_25 * x_13 + 21.5 x_25 * x_14 + 9.0 x_25 * x_20 + 0.5 x_25 * x_24 + 22.0 x_25 * x_25 - 18.0 x_25 * x_30 - 1.0 x_25 * x_31 - 21.0 x_25 * x_33 - 6.5 x_25 * x_37 - 18.0 x_25 * x_38 - 9.0 x_25 * x_43 + 12.5 x_25 * x_45 - 17.0 x_25 * x_49 + 21.0 x_25 * x_50 + 15.5 x_26 * x_2 - 21.5 x_26 * x_4 + 1.0 x_26 * x_6 - 10.5 x_26 * x_8 - 17.0 x_26 * x_9 + 22.5 x_26 * x_11 - 17.5 x_26 * x_18 - 21.5 x_26 * x_19 - 20.0 x_26 * x_20 - 0.5 x_26 * x_23 - 21.0 x_26 * x_26 - 10.0 x_26 * x_27 + 3.0 x_26 * x_33 + 23.0 x_26 * x_35 - 23.5 x_26 * x_36 + 14.0 x_26 * x_37 + 23.5 x_26 * x_38 + 10.0 x_26 * x_41 - 1.5 x_26 * x_42 + 1.0 x_26 * x_43 + 23.0 x_26 * x_47 - 23.0 x_26 * x_50 + 8.0 x_27 * x_2 + 5.5 x_27 * x_4 - 16.0 x_27 * x_5 + 9.5 x_27 * x_9 + 21.0 x_27 * x_10 - 19.0 x_27 * x_11 + 8.5 x_27 * x_12 - 1.0 x_27 * x_13 - 20.5 x_27 * x_18 + 5.0 x_27 * x_19 - 0.5 x_27 * x_20 - 10.0 x_27 * x_26 + 1.0 x_27 * x_27 + 22.5 x_27 * x_29 - 4.5 x_27 * x_32 - 3.5 x_27 * x_38 + 11.0 x_27 * x_42 - 8.5 x_27 * x_43 - 6.5 x_27 * x_44 + 7.0 x_27 * x_45 - 7.0 x_27 * x_48 + 22.5 x_28 * x_1 + 24.5 x_28 * x_4 + 4.5 x_28 * x_5 + 17.5 x_28 * x_8 - 22.5 x_28 * x_10 + 13.0 x_28 * x_14 + 11.0 x_28 * x_18 + 15.5 x_28 * x_19 - 0.5 x_28 * x_20 + 13.0 x_28 * x_22 - 7.5 x_28 * x_23 + 22.0 x_28 * x_29 + 14.5 x_28 * x_31 + 7.0 x_28 * x_38 + 12.0 x_28 * x_42 - 16.0 x_28 * x_44 + 12.0 x_28 * x_45 - 5.0 x_28 * x_49 - 21.0 x_29 * x_1 + 16.5 x_29 * x_2 - 8.5 x_29 * x_5 + 10.0 x_29 * x_9 - 6.0 x_29 * x_10 - 18.0 x_29 * x_19 - 7.0 x_29 * x_20 + 1.0 x_29 * x_24 + 22.5 x_29 * x_27 + 22.0 x_29 * x_28 - 3.0 x_29 * x_32 - 17.0 x_29 * x_33 - 4.0 x_29 * x_34 - 20.0 x_29 * x_35 - 3.5 x_29 * x_38 - 20.5 x_29 * x_39 - 14.0 x_29 * x_40 + 5.0 x_29 * x_42 - 8.0 x_29 * x_43 + 6.0 x_29 * x_44 - 20.5 x_29 * x_47 + 19.5 x_29 * x_50 - 4.5 x_30 * x_1 + 13.5 x_30 * x_4 - 7.5 x_30 * x_8 + 17.5 x_30 * x_11 + 11.5 x_30 * x_15 - 22.0 x_30 * x_19 - 24.5 x_30 * x_22 - 18.0 x_30 * x_25 + 3.0 x_30 * x_30 + 11.5 x_30 * x_32 - 9.0 x_30 * x_35 - 19.0 x_30 * x_39 - 10.5 x_30 * x_45 + 15.0 x_30 * x_46 + 8.0 x_30 * x_48 - 5.0 x_30 * x_49 + 10.0 x_31 * x_1 - 24.0 x_31 * x_4 - 11.0 x_31 * x_8 + 16.5 x_31 * x_12 - 22.0 x_31 * x_14 - 3.0 x_31 * x_18 + 8.0 x_31 * x_21 - 1.0 x_31 * x_25 + 14.5 x_31 * x_28 - 1.0 x_31 * x_32 - 24.0 x_31 * x_37 + 20.0 x_31 * x_40 + 21.5 x_31 * x_41 + 12.0 x_31 * x_42 + 8.5 x_31 * x_43 + 0.5 x_31 * x_49 - 8.5 x_31 * x_50 - 11.0 x_32 * x_1 - 21.0 x_32 * x_3 + 15.5 x_32 * x_5 - 9.0 x_32 * x_6 + 10.5 x_32 * x_11 - 4.5 x_32 * x_12 + 16.5 x_32 * x_13 - 7.5 x_32 * x_16 - 16.0 x_32 * x_22 + 18.5 x_32 * x_24 - 4.5 x_32 * x_27 - 3.0 x_32 * x_29 + 11.5 x_32 * x_30 - 1.0 x_32 * x_31 - 13.0 x_32 * x_32 + 4.5 x_32 * x_33 - 1.5 x_32 * x_43 + 7.5 x_32 * x_47 - 3.5 x_32 * x_48 + 17.5 x_33 * x_5 + 9.5 x_33 * x_6 + 2.5 x_33 * x_8 - 16.0 x_33 * x_9 - 5.5 x_33 * x_11 + 2.5 x_33 * x_12 + 21.0 x_33 * x_21 + 16.5 x_33 * x_23 + 5.0 x_33 * x_24 - 21.0 x_33 * x_25 + 3.0 x_33 * x_26 - 17.0 x_33 * x_29 + 4.5 x_33 * x_32 - 0.5 x_33 * x_33 + 10.5 x_33 * x_34 - 11.5 x_33 * x_35 - 20.0 x_33 * x_37 - 12.0 x_33 * x_38 - 7.5 x_33 * x_39 - 15.5 x_33 * x_43 + 19.0 x_33 * x_49 - 8.5 x_34 * x_2 - 5.5 x_34 * x_3 - 14.5 x_34 * x_9 - 9.5 x_34 * x_11 + 4.0 x_34 * x_16 - 16.0 x_34 * x_19 - 19.0 x_34 * x_20 - 4.0 x_34 * x_29 + 10.5 x_34 * x_33 - 24.0 x_34 * x_35 - 2.5 x_34 * x_38 + 10.5 x_34 * x_40 + 5.0 x_34 * x_41 - 9.0 x_34 * x_42 + 13.0 x_34 * x_43 + 13.5 x_34 * x_46 + 16.0 x_34 * x_49 + 2.0 x_35 * x_1 - 18.0 x_35 * x_2 - 14.5 x_35 * x_4 - 12.5 x_35 * x_7 + 8.0 x_35 * x_10 + 21.0 x_35 * x_15 - 21.5 x_35 * x_19 + 6.0 x_35 * x_22 - 17.0 x_35 * x_23 + 23.0 x_35 * x_26 - 20.0 x_35 * x_29 - 9.0 x_35 * x_30 - 11.5 x_35 * x_33 - 24.0 x_35 * x_34 - 13.0 x_35 * x_35 - 11.0 x_35 * x_36 + 6.0 x_35 * x_40 + 12.0 x_35 * x_41 + 7.5 x_35 * x_42 + 13.5 x_35 * x_43 + 19.0 x_35 * x_47 + 11.0 x_35 * x_48 - 17.0 x_35 * x_49 + 0.5 x_36 * x_2 + 2.0 x_36 * x_4 + 11.0 x_36 * x_5 + 4.0 x_36 * x_8 - 5.0 x_36 * x_12 - 23.5 x_36 * x_15 - 21.0 x_36 * x_16 - 5.0 x_36 * x_18 + 13.0 x_36 * x_22 - 23.5 x_36 * x_26 - 11.0 x_36 * x_35 + 1.0 x_36 * x_36 - 1.5 x_36 * x_37 + 7.0 x_36 * x_44 + 22.5 x_37 * x_3 - 2.5 x_37 * x_6 - 15.5 x_37 * x_8 + 14.5 x_37 * x_9 + 12.0 x_37 * x_13 - 12.5 x_37 * x_15 + 18.5 x_37 * x_17 + 20.5 x_37 * x_18 + 16.0 x_37 * x_20 - 19.0 x_37 * x_21 + 22.0 x_37 * x_23 - 6.5 x_37 * x_25 + 14.0 x_37 * x_26 - 24.0 x_37 * x_31 - 20.0 x_37 * x_33 - 1.5 x_37 * x_36 - 12.5 x_37 * x_38 + 10.5 x_37 * x_43 + 19.5 x_37 * x_44 + 1.0 x_37 * x_45 - 4.5 x_37 * x_49 + 4.5 x_38 * x_2 + 20.5 x_38 * x_3 - 1.5 x_38 * x_4 + 22.5 x_38 * x_6 - 1.0 x_38 * x_7 + 14.5 x_38 * x_15 - 8.5 x_38 * x_18 - 20.0 x_38 * x_23 - 18.0 x_38 * x_25 + 23.5 x_38 * x_26 - 3.5 x_38 * x_27 + 7.0 x_38 * x_28 - 3.5 x_38 * x_29 - 12.0 x_38 * x_33 - 2.5 x_38 * x_34 - 12.5 x_38 * x_37 + 4.0 x_38 * x_38 + 10.5 x_38 * x_42 + 2.0 x_38 * x_44 - 3.5 x_38 * x_46 - 24.0 x_38 * x_47 + 20.5 x_38 * x_49 + 23.5 x_38 * x_50 - 5.0 x_39 * x_2 - 5.0 x_39 * x_3 - 17.0 x_39 * x_4 - 24.5 x_39 * x_6 + 11.5 x_39 * x_7 - 5.0 x_39 * x_12 + 17.0 x_39 * x_18 - 12.5 x_39 * x_20 - 13.5 x_39 * x_22 - 13.0 x_39 * x_23 - 20.5 x_39 * x_29 - 19.0 x_39 * x_30 - 7.5 x_39 * x_33 - 22.0 x_39 * x_41 - 16.5 x_39 * x_42 + 7.0 x_39 * x_43 - 19.5 x_39 * x_46 - 21.0 x_39 * x_47 - 2.0 x_40 * x_2 - 3.0 x_40 * x_5 + 20.5 x_40 * x_6 - 22.0 x_40 * x_7 + 22.0 x_40 * x_9 + 22.0 x_40 * x_11 + 12.0 x_40 * x_13 + 7.5 x_40 * x_15 - 9.0 x_40 * x_17 + 3.5 x_40 * x_19 - 18.5 x_40 * x_22 + 7.0 x_40 * x_23 - 14.0 x_40 * x_29 + 20.0 x_40 * x_31 + 10.5 x_40 * x_34 + 6.0 x_40 * x_35 - 1.5 x_40 * x_42 - 21.0 x_40 * x_45 + 8.5 x_40 * x_47 + 10.5 x_40 * x_49 + 16.0 x_41 * x_1 - 9.0 x_41 * x_5 - 8.5 x_41 * x_6 + 22.0 x_41 * x_7 - 3.5 x_41 * x_10 - 24.0 x_41 * x_11 + 19.0 x_41 * x_15 + 20.0 x_41 * x_16 - 11.0 x_41 * x_17 + 2.5 x_41 * x_19 + 15.5 x_41 * x_21 + 3.0 x_41 * x_24 + 10.0 x_41 * x_26 + 21.5 x_41 * x_31 + 5.0 x_41 * x_34 + 12.0 x_41 * x_35 - 22.0 x_41 * x_39 + 13.0 x_41 * x_42 - 15.5 x_41 * x_43 - 21.5 x_41 * x_44 - 24.5 x_41 * x_46 - 17.0 x_41 * x_48 + 16.5 x_42 * x_6 - 6.5 x_42 * x_8 + 9.5 x_42 * x_9 - 4.5 x_42 * x_11 + 14.5 x_42 * x_12 + 1.5 x_42 * x_19 - 21.5 x_42 * x_21 - 24.5 x_42 * x_23 - 1.5 x_42 * x_26 + 11.0 x_42 * x_27 + 12.0 x_42 * x_28 + 5.0 x_42 * x_29 + 12.0 x_42 * x_31 - 9.0 x_42 * x_34 + 7.5 x_42 * x_35 + 10.5 x_42 * x_38 - 16.5 x_42 * x_39 - 1.5 x_42 * x_40 + 13.0 x_42 * x_41 - 4.0 x_42 * x_43 - 21.5 x_42 * x_46 - 19.5 x_42 * x_48 - 21.0 x_42 * x_49 - 19.5 x_43 * x_1 + 18.0 x_43 * x_3 + 18.0 x_43 * x_4 + 17.5 x_43 * x_9 - 6.5 x_43 * x_11 + 23.5 x_43 * x_12 - 1.5 x_43 * x_17 - 0.5 x_43 * x_20 - 17.0 x_43 * x_23 - 9.0 x_43 * x_25 + 1.0 x_43 * x_26 - 8.5 x_43 * x_27 - 8.0 x_43 * x_29 + 8.5 x_43 * x_31 - 1.5 x_43 * x_32 - 15.5 x_43 * x_33 + 13.0 x_43 * x_34 + 13.5 x_43 * x_35 + 10.5 x_43 * x_37 + 7.0 x_43 * x_39 - 15.5 x_43 * x_41 - 4.0 x_43 * x_42 - 4.5 x_43 * x_43 - 12.0 x_43 * x_44 - 18.0 x_43 * x_48 + 9.0 x_43 * x_49 + 21.0 x_43 * x_50 - 8.0 x_44 * x_1 + 10.0 x_44 * x_4 - 17.5 x_44 * x_5 + 13.0 x_44 * x_10 + 14.0 x_44 * x_11 + 9.0 x_44 * x_12 - 22.0 x_44 * x_16 + 22.0 x_44 * x_19 - 10.0 x_44 * x_20 - 6.5 x_44 * x_27 - 16.0 x_44 * x_28 + 6.0 x_44 * x_29 + 7.0 x_44 * x_36 + 19.5 x_44 * x_37 + 2.0 x_44 * x_38 - 21.5 x_44 * x_41 - 12.0 x_44 * x_43 - 5.0 x_44 * x_45 + 23.0 x_44 * x_48 + 10.5 x_45 * x_4 + 1.5 x_45 * x_6 - 1.0 x_45 * x_12 + 20.0 x_45 * x_16 + 7.0 x_45 * x_18 + 6.5 x_45 * x_19 - 14.0 x_45 * x_20 - 4.5 x_45 * x_21 + 17.5 x_45 * x_22 - 17.0 x_45 * x_24 + 12.5 x_45 * x_25 + 7.0 x_45 * x_27 + 12.0 x_45 * x_28 - 10.5 x_45 * x_30 + 1.0 x_45 * x_37 - 21.0 x_45 * x_40 - 5.0 x_45 * x_44 + 2.5 x_45 * x_46 - 2.0 x_45 * x_48 + 19.0 x_45 * x_49 - 8.5 x_46 * x_2 + 21.5 x_46 * x_3 - 3.5 x_46 * x_7 + 7.0 x_46 * x_8 + 21.0 x_46 * x_10 + 4.0 x_46 * x_11 - 11.0 x_46 * x_23 + 15.0 x_46 * x_30 + 13.5 x_46 * x_34 - 3.5 x_46 * x_38 - 19.5 x_46 * x_39 - 24.5 x_46 * x_41 - 21.5 x_46 * x_42 + 2.5 x_46 * x_45 + 4.0 x_46 * x_46 + 17.5 x_46 * x_47 + 5.5 x_46 * x_48 - 24.5 x_46 * x_49 + 3.0 x_47 * x_2 - 15.0 x_47 * x_3 + 17.5 x_47 * x_4 - 16.5 x_47 * x_8 + 7.0 x_47 * x_12 - 22.0 x_47 * x_18 - 15.5 x_47 * x_21 - 13.0 x_47 * x_22 + 23.0 x_47 * x_26 - 20.5 x_47 * x_29 + 7.5 x_47 * x_32 + 19.0 x_47 * x_35 - 24.0 x_47 * x_38 - 21.0 x_47 * x_39 + 8.5 x_47 * x_40 + 17.5 x_47 * x_46 + 10.0 x_47 * x_48 - 9.0 x_47 * x_50 - 10.0 x_48 * x_7 + 8.5 x_48 * x_9 - 24.0 x_48 * x_13 - 12.0 x_48 * x_14 - 24.0 x_48 * x_15 - 11.5 x_48 * x_16 + 20.5 x_48 * x_17 - 19.5 x_48 * x_18 - 6.5 x_48 * x_20 - 7.0 x_48 * x_27 + 8.0 x_48 * x_30 - 3.5 x_48 * x_32 + 11.0 x_48 * x_35 - 17.0 x_48 * x_41 - 19.5 x_48 * x_42 - 18.0 x_48 * x_43 + 23.0 x_48 * x_44 - 2.0 x_48 * x_45 + 5.5 x_48 * x_46 + 10.0 x_48 * x_47 - 15.0 x_49 * x_1 + 1.0 x_49 * x_3 - 15.0 x_49 * x_4 - 10.5 x_49 * x_8 - 7.0 x_49 * x_9 + 16.0 x_49 * x_20 - 24.5 x_49 * x_22 + 23.0 x_49 * x_24 - 17.0 x_49 * x_25 - 5.0 x_49 * x_28 - 5.0 x_49 * x_30 + 0.5 x_49 * x_31 + 19.0 x_49 * x_33 + 16.0 x_49 * x_34 - 17.0 x_49 * x_35 - 4.5 x_49 * x_37 + 20.5 x_49 * x_38 + 10.5 x_49 * x_40 - 21.0 x_49 * x_42 + 9.0 x_49 * x_43 + 19.0 x_49 * x_45 - 24.5 x_49 * x_46 + 10.5 x_50 * x_1 - 6.5 x_50 * x_3 + 3.5 x_50 * x_4 + 15.0 x_50 * x_6 - 21.0 x_50 * x_7 + 19.5 x_50 * x_11 + 16.0 x_50 * x_12 + 9.5 x_50 * x_13 - 18.0 x_50 * x_21 + 8.5 x_50 * x_22 + 21.0 x_50 * x_25 - 23.0 x_50 * x_26 + 19.5 x_50 * x_29 - 8.5 x_50 * x_31 + 23.5 x_50 * x_38 + 21.0 x_50 * x_43 - 9.0 x_50 * x_47 ] + 0.0 x_1 + 12.0 x_2 + 0.0 x_3 + 0.0 x_4 + 42.0 x_5 + 0.0 x_6 + 0.0 x_7 + 0.0 x_8 + 0.0 x_9 + 0.0 x_10 + 0.0 x_11 - 34.0 x_12 - 39.0 x_13 + 0.0 x_14 + 0.0 x_15 + 0.0 x_16 + 0.0 x_17 + 0.0 x_18 - 7.0 x_19 - 4.0 x_20 + 0.0 x_21 + 0.0 x_22 + 15.0 x_23 + 31.0 x_24 + 0.0 x_25 + 0.0 x_26 + 0.0 x_27 + 0.0 x_28 + 0.0 x_29 + 36.0 x_30 - 3.0 x_31 - 11.0 x_32 + 0.0 x_33 + 0.0 x_34 + 34.0 x_35 + 0.0 x_36 + 0.0 x_37 + 0.0 x_38 + 0.0 x_39 + 0.0 x_40 + 0.0 x_41 + 0.0 x_42 + 17.0 x_43 + 0.0 x_44 + 0.0 x_45 - 42.0 x_46 + 0.0 x_47 + 45.0 x_48 + 0.0 x_49 - 46.0 x_50

Subject To
 e2: [  x_1 * x_5 ] = 0.0
 e3: [  x_1 * x_6 ] = 0.0
 e4: [  x_1 * x_32 ] = 0.0
 e5: [  x_1 * x_35 ] = 0.0
 e6: [  x_1 * x_41 ] = 0.0
 e7: [  x_2 * x_2 ] = 0.0
 e8: [  x_2 * x_7 ] = 0.0
 e9: [  x_2 * x_20 ] = 0.0
 e10: [  x_2 * x_25 ] = 0.0
 e11: [  x_2 * x_29 ] = 0.0
 e12: [  x_2 * x_35 ] = 0.0
 e13: [  x_2 * x_36 ] = 0.0
 e14: [  x_2 * x_47 ] = 0.0
 e15: [  x_3 * x_7 ] = 0.0
 e16: [  x_3 * x_16 ] = 0.0
 e17: [  x_3 * x_37 ] = 0.0
 e18: [  x_3 * x_38 ] = 0.0
 e19: [  x_3 * x_46 ] = 0.0
 e20: [  x_3 * x_50 ] = 0.0
 e21: [  x_4 * x_6 ] = 0.0
 e22: [  x_4 * x_18 ] = 0.0
 e23: [  x_4 * x_20 ] = 0.0
 e24: [  x_4 * x_21 ] = 0.0
 e25: [  x_4 * x_24 ] = 0.0
 e26: [  x_4 * x_25 ] = 0.0
 e27: [  x_4 * x_27 ] = 0.0
 e28: [  x_4 * x_43 ] = 0.0
 e29: [  x_4 * x_47 ] = 0.0
 e30: [  x_4 * x_49 ] = 0.0
 e31: [  x_5 * x_2 ] = 0.0
 e32: [  x_5 * x_5 ] = 0.0
 e33: [  x_5 * x_6 ] = 0.0
 e34: [  x_5 * x_12 ] = 0.0
 e35: [  x_5 * x_15 ] = 0.0
 e36: [  x_5 * x_17 ] = 0.0
 e37: [  x_5 * x_28 ] = 0.0
 e38: [  x_6 * x_8 ] = 0.0
 e39: [  x_6 * x_19 ] = 0.0
 e40: [  x_6 * x_39 ] = 0.0
 e41: [  x_6 * x_41 ] = 0.0
 e42: [  x_7 * x_3 ] = 0.0
 e43: [  x_7 * x_10 ] = 0.0
 e44: [  x_7 * x_12 ] = 0.0
 e45: [  x_7 * x_14 ] = 0.0
 e46: [  x_7 * x_38 ] = 0.0
 e47: [  x_7 * x_46 ] = 0.0
 e48: [  x_8 * x_10 ] = 0.0
 e49: [  x_8 * x_22 ] = 0.0
 e50: [  x_8 * x_30 ] = 0.0
 e51: [  x_8 * x_31 ] = 0.0
 e52: [  x_8 * x_36 ] = 0.0
 e53: [  x_8 * x_37 ] = 0.0
 e54: [  x_8 * x_46 ] = 0.0
 e55: [  x_9 * x_1 ] = 0.0
 e56: [  x_9 * x_29 ] = 0.0
 e57: [  x_9 * x_33 ] = 0.0
 e58: [  x_10 * x_1 ] = 0.0
 e59: [  x_10 * x_22 ] = 0.0
 e60: [  x_11 * x_9 ] = 0.0
 e61: [  x_11 * x_20 ] = 0.0
 e62: [  x_11 * x_22 ] = 0.0
 e63: [  x_11 * x_27 ] = 0.0
 e64: [  x_11 * x_34 ] = 0.0
 e65: [  x_11 * x_40 ] = 0.0
 e66: [  x_11 * x_44 ] = 0.0
 e67: [  x_11 * x_46 ] = 0.0
 e68: [  x_12 * x_27 ] = 0.0
 e69: [  x_12 * x_43 ] = 0.0
 e70: [  x_13 * x_27 ] = 0.0
 e71: [  x_14 * x_28 ] = 0.0
 e72: [  x_14 * x_31 ] = 0.0
 e73: [  x_15 * x_6 ] = 0.0
 e74: [  x_15 * x_35 ] = 0.0
 e75: [  x_15 * x_36 ] = 0.0
 e76: [  x_15 * x_40 ] = 0.0
 e77: [  x_15 * x_48 ] = 0.0
 e78: [  x_16 * x_8 ] = 0.0
 e79: [  x_16 * x_9 ] = 0.0
 e80: [  x_16 * x_11 ] = 0.0
 e81: [  x_16 * x_18 ] = 0.0
 e82: [  x_16 * x_41 ] = 0.0
 e83: [  x_16 * x_44 ] = 0.0
 e84: [  x_16 * x_48 ] = 0.0
 e85: [  x_17 * x_10 ] = 0.0
 e86: [  x_17 * x_15 ] = 0.0
 e87: [  x_17 * x_24 ] = 0.0
 e88: [  x_17 * x_43 ] = 0.0
 e89: [  x_18 * x_3 ] = 0.0
 e90: [  x_18 * x_16 ] = 0.0
 e91: [  x_18 * x_19 ] = 0.0
 e92: [  x_18 * x_23 ] = 0.0
 e93: [  x_19 * x_2 ] = 0.0
 e94: [  x_19 * x_4 ] = 0.0
 e95: [  x_19 * x_15 ] = 0.0
 e96: [  x_19 * x_17 ] = 0.0
 e97: [  x_19 * x_27 ] = 0.0
 e98: [  x_19 * x_40 ] = 0.0
 e99: [  x_19 * x_44 ] = 0.0
 e100: [  x_20 * x_4 ] = 0.0
 e101: [  x_20 * x_11 ] = 0.0
 e102: [  x_20 * x_15 ] = 0.0
 e103: [  x_20 * x_17 ] = 0.0
 e104: [  x_20 * x_25 ] = 0.0
 e105: [  x_20 * x_26 ] = 0.0
 e106: [  x_20 * x_28 ] = 0.0
 e107: [  x_20 * x_37 ] = 0.0
 e108: [  x_21 * x_7 ] = 0.0
 e109: [  x_21 * x_8 ] = 0.0
 e110: [  x_21 * x_14 ] = 0.0
 e111: [  x_21 * x_21 ] = 0.0
 e112: [  x_21 * x_33 ] = 0.0
 e113: [  x_21 * x_45 ] = 0.0
 e114: [  x_21 * x_50 ] = 0.0
 e115: [  x_22 * x_22 ] = 0.0
 e116: [  x_22 * x_30 ] = 0.0
 e117: [  x_22 * x_32 ] = 0.0
 e118: [  x_23 * x_7 ] = 0.0
 e119: [  x_23 * x_22 ] = 0.0
 e120: [  x_23 * x_26 ] = 0.0
 e121: [  x_23 * x_42 ] = 0.0
 e122: [  x_24 * x_10 ] = 0.0
 e123: [  x_24 * x_16 ] = 0.0
 e124: [  x_24 * x_17 ] = 0.0
 e125: [  x_24 * x_32 ] = 0.0
 e126: [  x_24 * x_41 ] = 0.0
 e127: [  x_24 * x_49 ] = 0.0
 e128: [  x_25 * x_2 ] = 0.0
 e129: [  x_25 * x_13 ] = 0.0
 e130: [  x_25 * x_14 ] = 0.0
 e131: [  x_25 * x_30 ] = 0.0
 e132: [  x_25 * x_31 ] = 0.0
 e133: [  x_25 * x_33 ] = 0.0
 e134: [  x_26 * x_2 ] = 0.0
 e135: [  x_26 * x_18 ] = 0.0
 e136: [  x_26 * x_19 ] = 0.0
 e137: [  x_26 * x_36 ] = 0.0
 e138: [  x_27 * x_12 ] = 0.0
 e139: [  x_27 * x_20 ] = 0.0
 e140: [  x_27 * x_27 ] = 0.0
 e141: [  x_27 * x_42 ] = 0.0
 e142: [  x_27 * x_44 ] = 0.0
 e143: [  x_27 * x_45 ] = 0.0
 e144: [  x_28 * x_4 ] = 0.0
 e145: [  x_28 * x_19 ] = 0.0
 e146: [  x_28 * x_22 ] = 0.0
 e147: [  x_28 * x_44 ] = 0.0
 e148: [  x_29 * x_5 ] = 0.0
 e149: [  x_29 * x_19 ] = 0.0
 e150: [  x_29 * x_20 ] = 0.0
 e151: [  x_29 * x_24 ] = 0.0
 e152: [  x_29 * x_28 ] = 0.0
 e153: [  x_29 * x_40 ] = 0.0
 e154: [  x_29 * x_47 ] = 0.0
 e155: [  x_30 * x_11 ] = 0.0
 e156: [  x_30 * x_35 ] = 0.0
 e157: [  x_31 * x_18 ] = 0.0
 e158: [  x_31 * x_41 ] = 0.0
 e159: [  x_31 * x_49 ] = 0.0
 e160: [  x_32 * x_3 ] = 0.0
 e161: [  x_32 * x_47 ] = 0.0
 e162: [  x_33 * x_9 ] = 0.0
 e163: [  x_33 * x_23 ] = 0.0
 e164: [  x_33 * x_32 ] = 0.0
 e165: [  x_33 * x_35 ] = 0.0
 e166: [  x_33 * x_38 ] = 0.0
 e167: [  x_34 * x_11 ] = 0.0
 e168: [  x_34 * x_19 ] = 0.0
 e169: [  x_34 * x_33 ] = 0.0
 e170: [  x_34 * x_42 ] = 0.0
 e171: [  x_34 * x_43 ] = 0.0
 e172: [  x_35 * x_26 ] = 0.0
 e173: [  x_35 * x_35 ] = 0.0
 e174: [  x_35 * x_36 ] = 0.0
 e175: [  x_35 * x_40 ] = 0.0
 e176: [  x_35 * x_43 ] = 0.0
 e177: [  x_35 * x_48 ] = 0.0
 e178: [  x_35 * x_49 ] = 0.0
 e179: [  x_36 * x_4 ] = 0.0
 e180: [  x_36 * x_5 ] = 0.0
 e181: [  x_36 * x_16 ] = 0.0
 e182: [  x_36 * x_18 ] = 0.0
 e183: [  x_36 * x_26 ] = 0.0
 e184: [  x_36 * x_35 ] = 0.0
 e185: [  x_37 * x_8 ] = 0.0
 e186: [  x_37 * x_17 ] = 0.0
 e187: [  x_37 * x_18 ] = 0.0
 e188: [  x_37 * x_25 ] = 0.0
 e189: [  x_37 * x_38 ] = 0.0
 e190: [  x_38 * x_3 ] = 0.0
 e191: [  x_38 * x_38 ] = 0.0
 e192: [  x_39 * x_2 ] = 0.0
 e193: [  x_39 * x_7 ] = 0.0
 e194: [  x_39 * x_18 ] = 0.0
 e195: [  x_39 * x_23 ] = 0.0
 e196: [  x_40 * x_19 ] = 0.0
 e197: [  x_40 * x_22 ] = 0.0
 e198: [  x_40 * x_31 ] = 0.0
 e199: [  x_40 * x_35 ] = 0.0
 e200: [  x_40 * x_42 ] = 0.0
 e201: [  x_40 * x_45 ] = 0.0
 e202: [  x_41 * x_1 ] = 0.0
 e203: [  x_41 * x_7 ] = 0.0
 e204: [  x_41 * x_10 ] = 0.0
 e205: [  x_41 * x_19 ] = 0.0
 e206: [  x_41 * x_24 ] = 0.0
 e207: [  x_41 * x_26 ] = 0.0
 e208: [  x_41 * x_42 ] = 0.0
 e209: [  x_41 * x_44 ] = 0.0
 e210: [  x_41 * x_46 ] = 0.0
 e211: [  x_41 * x_48 ] = 0.0
 e212: [  x_42 * x_8 ] = 0.0
 e213: [  x_42 * x_9 ] = 0.0
 e214: [  x_42 * x_26 ] = 0.0
 e215: [  x_42 * x_28 ] = 0.0
 e216: [  x_42 * x_31 ] = 0.0
 e217: [  x_42 * x_38 ] = 0.0
 e218: [  x_42 * x_43 ] = 0.0
 e219: [  x_42 * x_49 ] = 0.0
 e220: [  x_43 * x_9 ] = 0.0
 e221: [  x_43 * x_17 ] = 0.0
 e222: [  x_43 * x_25 ] = 0.0
 e223: [  x_43 * x_29 ] = 0.0
 e224: [  x_43 * x_33 ] = 0.0
 e225: [  x_43 * x_42 ] = 0.0
 e226: [  x_43 * x_44 ] = 0.0
 e227: [  x_43 * x_48 ] = 0.0
 e228: [  x_43 * x_49 ] = 0.0
 e229: [  x_43 * x_50 ] = 0.0
 e230: [  x_44 * x_4 ] = 0.0
 e231: [  x_44 * x_19 ] = 0.0
 e232: [  x_44 * x_28 ] = 0.0
 e233: [  x_44 * x_29 ] = 0.0
 e234: [  x_44 * x_36 ] = 0.0
 e235: [  x_44 * x_41 ] = 0.0
 e236: [  x_44 * x_43 ] = 0.0
 e237: [  x_45 * x_4 ] = 0.0
 e238: [  x_45 * x_18 ] = 0.0
 e239: [  x_45 * x_21 ] = 0.0
 e240: [  x_45 * x_25 ] = 0.0
 e241: [  x_45 * x_27 ] = 0.0
 e242: [  x_45 * x_46 ] = 0.0
 e243: [  x_45 * x_48 ] = 0.0
 e244: [  x_46 * x_30 ] = 0.0
 e245: [  x_46 * x_38 ] = 0.0
 e246: [  x_46 * x_45 ] = 0.0
 e247: [  x_46 * x_49 ] = 0.0
 e248: [  x_47 * x_2 ] = 0.0
 e249: [  x_47 * x_18 ] = 0.0
 e250: [  x_47 * x_22 ] = 0.0
 e251: [  x_47 * x_29 ] = 0.0
 e252: [  x_47 * x_32 ] = 0.0
 e253: [  x_47 * x_35 ] = 0.0
 e254: [  x_47 * x_38 ] = 0.0
 e255: [  x_47 * x_48 ] = 0.0
 e256: [  x_48 * x_43 ] = 0.0
 e257: [  x_49 * x_3 ] = 0.0
 e258: [  x_49 * x_30 ] = 0.0
 e259: [  x_49 * x_35 ] = 0.0
 e260: [  x_49 * x_37 ] = 0.0
 e261: [  x_49 * x_42 ] = 0.0
 e262: [  x_50 * x_47 ] = 0.0

Bounds
 x_1 <= 1.0
 x_2 <= 1.0
 x_3 <= 1.0
 x_4 <= 1.0
 x_5 <= 1.0
 x_6 <= 1.0
 x_7 <= 1.0
 x_8 <= 1.0
 x_9 <= 1.0
 x_10 <= 1.0
 x_11 <= 1.0
 x_12 <= 1.0
 x_13 <= 1.0
 x_14 <= 1.0
 x_15 <= 1.0
 x_16 <= 1.0
 x_17 <= 1.0
 x_18 <= 1.0
 x_19 <= 1.0
 x_20 <= 1.0
 x_21 <= 1.0
 x_22 <= 1.0
 x_23 <= 1.0
 x_24 <= 1.0
 x_25 <= 1.0
 x_26 <= 1.0
 x_27 <= 1.0
 x_28 <= 1.0
 x_29 <= 1.0
 x_30 <= 1.0
 x_31 <= 1.0
 x_32 <= 1.0
 x_33 <= 1.0
 x_34 <= 1.0
 x_35 <= 1.0
 x_36 <= 1.0
 x_37 <= 1.0
 x_38 <= 1.0
 x_39 <= 1.0
 x_40 <= 1.0
 x_41 <= 1.0
 x_42 <= 1.0
 x_43 <= 1.0
 x_44 <= 1.0
 x_45 <= 1.0
 x_46 <= 1.0
 x_47 <= 1.0
 x_48 <= 1.0
 x_49 <= 1.0
 x_50 <= 1.0

End